
Gurobi 6.5.2 (mac64) logging started Mon Oct 10 08:46:31 2016


Gurobi 6.5.2 (mac64) logging started Mon Oct 10 08:47:16 2016


Gurobi 6.5.2 (mac64) logging started Mon Oct 10 08:47:31 2016


Gurobi 6.5.2 (mac64) logging started Mon Oct 10 08:47:58 2016


Gurobi 6.5.2 (mac64) logging started Mon Oct 10 08:54:20 2016


Gurobi 6.5.2 (mac64) logging started Mon Oct 10 09:03:49 2016

